============================[ Problem Statistics ]=============================|                                                                             ||  Number of variables:          4242                                         ||  Number of clauses:           10292                                         ||  Parse time:                   0.68 s                                       ||                                                                             |============================[ Search Statistics ]==============================| Conflicts |          ORIGINAL         |          LEARNT          | Progress ||           |    Vars  Clauses Literals |    Limit  Clauses Lit/Cl |          |===============================================================================|       100 |    1591     6497  1084128 |     2382      100     53 | 62.501 % ||       250 |    1591     6497  1084128 |     2620      250     75 | 62.495 % |===============================================================================restarts              : 3conflicts             : 370            (359 /sec)decisions             : 636            (0.00 % random) (617 /sec)propagations          : 11997          (11636 /sec)conflict literals     : 30330          (94.59 % deleted)CPU time              : 1.031 sSATISFIABLE